4
4
20
1 1.3 1.55 1.75 2.1
44 36 35 14 29 31 23 12 38 33 23 16 26 38 6 6 9 24 39 9 30 46 21 41 47 5 45 23 43 35 21 12 46 27 7 15 45 19 42 47 45 31 10 21 25 32 18 20 47 18 46 33 17 43 11 5 48 41 44 35 47 20 5 7 5 27 13 30 25 9 38 39 34 41 22 25 45 8 25 33 